702 5
10 10 10 10 10 

0 0 0 0 0 0 5 2 54 106 158 210 
0 0 0 0 0 0 1 3 
9 1 1 1 1 1 1 4 
5 3 5 6 6 7 2 7 5 
1 6 7 8 5 4 1 6 
8 8 5 5 3 3 1 8 
7 5 4 8 4 4 1 8 
2 6 3 2 8 6 2 10 9 
3 8 7 4 9 6 1 11 
6 3 5 1 6 4 1 11 
4 4 4 2 6 4 1 12 
8 5 6 7 6 8 1 13 
8 4 4 5 4 4 1 14 
9 6 6 3 4 10 1 15 
3 4 7 6 2 2 2 17 16 
3 5 3 4 8 6 2 20 18 
1 6 5 5 5 6 1 18 
7 5 8 6 5 5 1 19 
7 4 8 5 4 3 1 21 
2 5 5 5 6 4 1 21 
7 5 7 3 5 5 2 24 22 
8 5 8 4 8 5 2 25 23 
7 3 2 6 4 6 2 28 27 
3 4 6 8 5 7 2 28 27 
2 7 8 5 6 7 1 26 
8 6 4 5 7 7 1 27 
4 3 4 4 4 5 2 30 29 
1 5 2 4 6 5 2 33 30 
10 6 7 9 4 4 2 33 32 
8 5 8 10 4 4 1 31 
8 5 1 6 7 5 1 32 
6 4 2 5 5 5 1 34 
8 5 6 3 5 6 1 34 
1 7 5 5 5 5 1 35 
1 5 6 10 7 5 2 38 36 
7 6 5 6 3 7 2 37 147 
4 4 4 5 5 5 2 41 39 
8 4 3 7 4 4 2 41 40 
9 4 3 5 4 5 1 40 
4 4 3 6 6 2 1 42 
5 2 3 2 5 2 1 42 
2 6 9 2 5 4 2 45 43 
10 7 7 6 4 5 1 44 
4 5 5 8 8 5 1 46 
2 5 5 3 8 2 1 46 
7 8 4 1 1 8 1 47 
3 2 5 7 3 4 1 48 
5 5 5 5 6 4 1 49 
4 8 5 2 3 8 2 52 50 
1 5 8 5 4 6 1 51 
5 9 4 2 6 6 1 53 
1 3 3 8 1 5 1 53 
0 0 0 0 0 0 1 702 
0 0 0 0 0 0 1 55 
10 3 2 1 1 1 1 56 
7 1 2 4 4 4 1 57 
7 6 8 5 5 5 2 59 58 
1 6 7 6 6 7 1 60 
5 6 5 4 7 9 1 60 
7 6 4 4 6 5 2 62 61 
5 8 2 4 6 4 1 63 
5 5 8 2 6 5 1 63 
6 4 3 5 5 5 1 64 
1 4 5 5 5 2 1 65 
2 10 6 3 3 10 1 66 
2 5 9 4 7 4 1 67 
9 4 10 4 5 4 2 69 68 
6 9 8 7 6 3 2 72 70 
3 4 2 5 6 6 1 70 
1 6 5 10 8 3 1 71 
1 4 6 4 3 4 1 73 
5 3 5 5 4 7 1 73 
8 3 5 4 7 6 2 75 74 
4 5 1 5 5 4 2 77 76 
3 9 5 7 3 6 2 78 77 
3 6 2 7 4 4 2 80 78 
9 6 6 6 4 6 2 80 79 
7 4 8 5 5 4 1 79 
3 5 4 2 3 6 2 82 81 
1 4 3 4 5 6 2 82 81 
8 3 3 6 4 4 2 85 83 
7 4 8 3 8 5 1 83 
8 2 5 4 8 2 1 84 
6 6 3 7 3 6 1 86 
8 4 6 4 5 10 1 86 
10 2 7 6 4 6 1 87 
6 7 7 4 6 7 2 90 88 
1 3 5 4 4 4 1 89 
5 4 3 4 4 3 2 93 91 
8 10 5 4 3 8 2 93 92 
7 5 9 4 4 6 1 92 
10 6 5 7 6 5 1 94 
10 5 3 4 6 6 1 94 
7 2 2 8 5 4 3 97 95 217 
3 4 3 4 4 4 1 96 
7 5 4 7 4 3 1 98 
2 9 4 8 3 5 1 98 
4 5 7 4 10 7 1 99 
7 5 6 6 5 4 1 100 
3 5 8 9 8 10 1 101 
9 4 6 6 3 2 1 102 
9 7 2 5 8 5 2 104 103 
2 3 3 4 4 2 1 105 
5 4 5 6 2 2 1 105 
0 0 0 0 0 0 1 702 
0 0 0 0 0 0 1 107 
1 1 1 2 1 3 2 117 108 
2 6 2 8 6 4 1 109 
7 9 3 3 4 3 2 110 502 
10 4 2 2 4 7 1 111 
1 7 6 4 8 4 2 116 112 
7 4 7 5 8 6 1 113 
6 4 5 5 7 5 1 114 
10 7 4 2 5 3 1 115 
2 4 3 10 3 6 1 118 
3 6 4 5 7 4 1 118 
10 7 10 4 5 4 1 118 
8 6 4 5 5 3 2 121 119 
2 4 3 7 4 5 1 120 
3 5 5 7 4 4 2 131 122 
10 8 9 3 5 3 1 122 
6 2 5 4 4 5 1 123 
4 6 6 4 7 5 1 124 
6 3 7 3 8 5 3 135 130 125 
9 5 2 6 3 3 2 137 126 
2 3 4 3 3 6 1 127 
6 3 2 6 7 8 1 128 
8 6 3 6 4 6 2 136 129 
5 5 3 5 8 5 1 132 
10 4 7 6 4 10 1 132 
3 3 6 6 5 4 1 132 
5 7 10 8 10 10 1 133 
9 7 4 3 2 6 1 134 
4 3 10 3 9 4 2 140 138 
9 4 8 6 7 2 1 137 
3 3 2 7 6 5 3 151 142 139 
4 4 2 5 4 5 1 138 
10 7 5 6 6 4 2 151 139 
8 5 7 3 4 4 1 141 
3 8 3 3 5 3 2 151 144 
6 6 3 7 4 4 1 143 
8 3 6 5 6 5 1 143 
2 6 6 6 6 6 1 144 
8 4 4 5 2 7 1 145 
3 3 5 5 3 3 2 156 146 
8 6 4 5 6 8 1 147 
9 8 4 4 5 4 1 148 
4 5 3 7 2 5 1 149 
3 7 6 6 3 4 1 150 
8 4 7 4 5 8 1 152 
6 6 10 6 5 6 1 152 
5 2 5 3 4 5 2 155 153 
7 5 4 3 3 6 1 154 
2 3 10 5 3 6 1 157 
5 7 5 10 3 5 1 157 
10 5 4 4 8 4 1 157 
0 0 0 0 0 0 1 702 
0 0 0 0 0 0 1 159 
5 1 1 1 1 1 2 164 160 
4 3 4 6 2 5 1 161 
1 6 6 4 10 3 1 162 
4 5 5 4 5 5 1 163 
4 4 8 3 5 4 2 168 165 
5 4 4 7 7 3 1 165 
7 5 8 6 6 4 1 166 
2 5 3 7 4 7 1 167 
5 5 8 5 3 3 1 169 
4 7 6 6 8 6 1 169 
7 8 7 6 8 6 1 170 
1 1 8 9 10 6 2 171 648 
8 5 2 5 3 7 2 173 172 
8 9 5 5 5 3 2 178 174 
10 3 4 7 5 3 1 174 
3 4 1 7 6 6 1 175 
7 3 2 8 3 6 1 176 
9 5 4 6 3 4 3 183 182 177 
9 6 8 4 4 9 2 185 179 
6 3 8 5 4 4 2 185 180 
4 9 1 5 5 2 1 180 
8 6 5 3 4 5 1 181 
8 8 3 5 3 8 2 186 184 
9 8 6 5 4 9 2 192 184 
1 4 3 9 5 5 1 185 
7 7 5 4 3 6 1 187 
6 7 9 6 4 2 1 187 
2 3 3 2 2 3 2 192 189 
4 7 4 5 8 6 1 188 
8 5 3 6 7 6 1 189 
10 4 4 4 3 6 1 190 
4 4 6 6 7 4 2 193 191 
2 3 8 4 9 3 2 198 194 
9 7 8 4 6 6 2 195 193 
2 9 6 2 7 8 2 198 196 
5 2 7 5 7 5 1 195 
4 1 6 3 4 6 1 196 
9 6 6 6 7 7 1 197 
5 6 2 3 4 5 2 203 199 
9 4 4 5 2 6 2 203 200 
6 4 5 6 3 6 1 200 
4 5 1 5 4 9 1 201 
5 6 3 5 6 3 1 202 
10 6 4 6 5 6 1 204 
7 5 5 5 3 3 1 204 
7 3 3 4 6 4 1 205 
9 4 6 3 2 5 2 208 206 
10 4 6 3 5 3 1 207 
2 8 8 6 6 3 1 209 
10 3 8 4 7 5 1 209 
0 0 0 0 0 0 1 702 
0 0 0 0 0 0 2 211 212 
2 1 0 0 0 0 2 220 213 
8 8 0 0 0 0 2 220 215 
9 6 0 0 0 0 1 214 
4 4 0 0 0 0 1 215 
7 6 0 0 0 0 1 216 
5 2 0 0 0 0 2 219 217 
4 7 0 0 0 0 1 218 
3 8 0 0 0 0 2 221 309 
10 7 0 0 0 0 1 221 
9 1 0 0 0 0 1 221 
0 0 0 0 0 0 5 222 264 306 318 360 
0 0 0 0 0 0 3 223 226 228 
2 0 1 1 1 1 1 224 
4 0 6 4 4 7 1 225 
5 0 7 6 5 7 1 227 
6 0 3 5 2 4 1 227 
4 0 8 6 8 6 1 229 
1 0 8 7 4 5 2 229 604 
9 0 1 4 4 4 1 230 
7 0 4 6 5 3 1 231 
2 0 2 6 2 2 2 234 232 
3 0 9 5 9 3 1 233 
7 0 5 7 9 5 1 235 
7 0 6 4 6 3 1 235 
5 0 1 4 6 6 1 236 
7 0 7 7 4 8 1 237 
10 0 5 3 6 4 1 238 
9 0 5 5 2 6 2 243 239 
5 0 2 6 6 5 2 246 240 
6 0 8 6 3 5 1 241 
5 0 6 6 4 7 2 262 242 
1 0 4 5 5 5 1 244 
8 0 7 5 10 9 2 250 247 
2 0 6 2 5 3 1 245 
4 0 3 4 6 4 1 247 
5 0 2 3 7 4 1 247 
4 0 4 7 6 4 2 259 248 
2 0 3 5 6 5 2 257 249 
6 0 8 7 3 7 2 261 251 
7 0 8 4 10 6 1 251 
10 0 2 7 5 5 1 252 
10 0 2 5 4 5 1 253 
4 0 8 2 5 6 1 254 
10 0 6 3 3 3 1 255 
9 0 10 8 5 6 1 256 
6 0 2 9 3 6 1 258 
2 0 5 6 4 5 1 258 
1 0 7 4 4 4 1 260 
5 0 5 4 6 6 1 260 
4 0 3 7 4 6 1 263 
10 0 4 2 6 9 1 263 
10 0 7 3 3 1 1 263 
0 0 0 0 0 0 1 702 
0 0 0 0 0 0 3 265 303 304 
3 1 1 1 1 0 1 266 
5 5 6 4 7 0 1 267 
5 4 5 7 7 0 1 268 
2 4 7 6 4 0 1 269 
10 3 3 6 8 0 2 302 270 
9 6 5 6 5 0 2 301 271 
1 8 9 6 6 0 1 272 
7 5 8 4 4 0 1 273 
9 3 5 6 5 0 1 274 
9 7 8 4 6 0 1 275 
9 4 3 6 4 0 1 276 
9 4 2 5 4 0 2 300 277 
8 7 6 9 4 0 3 299 298 278 
3 10 3 4 4 0 1 279 
8 5 4 1 5 0 1 280 
10 5 6 8 6 0 1 281 
4 5 5 4 3 0 1 282 
10 1 5 6 4 0 1 283 
1 6 3 5 7 0 2 297 284 
3 2 6 3 2 0 3 296 295 285 
1 4 10 6 9 0 1 286 
4 3 7 3 5 0 1 287 
5 7 2 10 6 0 1 288 
3 5 5 3 2 0 1 289 
3 9 4 3 3 0 1 290 
5 4 3 6 3 0 1 291 
4 1 7 1 6 0 1 292 
7 3 4 6 3 0 1 293 
9 5 3 9 7 0 1 294 
1 4 5 4 6 0 1 305 
3 3 8 4 8 0 1 305 
6 5 4 2 2 0 1 305 
3 5 5 4 9 0 1 305 
1 6 7 5 4 0 1 305 
10 5 5 4 6 0 1 305 
1 6 2 7 4 0 1 305 
4 10 5 6 3 0 1 305 
3 8 5 8 10 0 1 305 
7 7 3 6 5 0 1 305 
10 5 6 2 3 0 1 305 
0 0 0 0 0 0 1 702 
0 0 0 0 0 0 2 307 314 
5 0 0 1 0 0 1 308 
5 0 0 5 0 0 1 309 
7 0 0 4 0 0 2 311 310 
3 0 0 6 0 0 1 312 
4 0 0 6 0 0 1 312 
3 0 0 5 0 0 1 313 
1 0 0 3 0 0 2 316 315 
9 0 0 5 0 0 1 315 
6 0 0 5 0 0 1 317 
10 0 0 10 0 0 1 317 
0 0 0 0 0 0 5 402 434 466 498 510 
0 0 0 0 0 0 3 319 338 358 
10 1 4 2 1 0 1 320 
1 4 6 7 10 0 1 321 
1 5 3 4 4 0 1 322 
3 3 7 4 6 0 1 323 
2 5 1 7 4 0 2 346 324 
3 9 3 7 7 0 1 325 
6 5 4 4 3 0 1 326 
4 4 2 5 2 0 1 327 
8 4 10 7 10 0 2 357 328 
1 8 4 10 6 0 1 329 
5 4 5 7 6 0 1 330 
1 5 4 6 3 0 1 331 
6 9 1 6 1 0 2 356 332 
4 3 4 3 9 0 3 355 354 333 
6 4 3 3 1 0 1 334 
2 6 4 8 3 0 1 335 
9 5 3 4 7 0 1 336 
10 4 7 7 6 0 1 337 
2 7 6 4 5 0 2 353 339 
2 4 2 7 2 0 2 353 339 
1 6 3 4 7 0 3 352 351 340 
2 5 10 3 2 0 1 341 
3 2 6 7 4 0 1 342 
10 4 5 4 4 0 1 343 
3 8 10 3 7 0 1 344 
8 6 7 3 9 0 1 345 
4 2 3 5 2 0 1 347 
1 8 4 6 4 0 1 347 
4 5 8 3 4 0 1 348 
4 8 2 4 6 0 1 349 
1 5 2 5 8 0 1 350 
4 4 6 5 4 0 1 359 
7 8 5 4 4 0 1 359 
4 7 6 9 8 0 1 359 
3 3 10 3 3 0 1 359 
8 3 5 4 5 0 1 359 
2 6 7 5 7 0 1 359 
2 4 3 3 6 0 1 359 
6 4 5 2 4 0 1 359 
1 3 10 6 6 0 1 359 
0 0 0 0 0 0 1 702 
0 0 0 0 0 0 3 361 399 400 
3 1 1 1 1 0 1 362 
8 3 5 9 8 0 1 363 
1 7 6 8 5 0 1 364 
1 4 8 2 5 0 1 365 
3 7 6 3 10 0 2 398 366 
6 6 4 4 6 0 2 397 367 
6 3 5 4 8 0 1 368 
2 2 2 3 9 0 1 369 
6 3 2 3 3 0 1 370 
8 7 6 10 3 0 1 371 
7 3 3 5 5 0 1 372 
10 6 8 7 5 0 2 396 373 
1 8 9 2 3 0 2 395 374 
8 5 2 4 6 0 2 394 375 
4 6 3 6 4 0 1 376 
7 5 7 5 4 0 1 377 
7 5 4 6 6 0 1 378 
3 5 4 5 3 0 1 379 
8 3 4 4 5 0 2 393 380 
5 6 5 7 6 0 3 392 391 381 
1 9 7 6 3 0 1 382 
3 3 7 4 4 0 1 383 
2 6 5 5 6 0 1 384 
7 3 10 6 5 0 1 385 
3 7 6 3 4 0 1 386 
9 5 3 6 5 0 1 387 
5 7 2 10 6 0 1 388 
6 4 6 4 6 0 1 389 
9 6 5 4 7 0 1 390 
1 2 8 5 10 0 1 401 
6 4 1 3 4 0 1 401 
4 4 5 7 3 0 1 401 
3 4 5 6 5 0 1 401 
8 7 6 3 7 0 1 401 
1 6 1 2 5 0 1 401 
5 6 7 4 3 0 1 401 
2 8 5 5 4 0 1 401 
1 6 4 10 4 0 1 401 
7 4 9 4 2 0 1 401 
6 4 4 5 2 0 1 401 
0 0 0 0 0 0 1 702 
0 0 0 0 0 0 4 403 430 431 432 
7 0 1 0 1 1 1 404 
6 0 4 0 5 5 2 429 405 
8 0 4 0 9 6 1 406 
8 0 4 0 4 7 2 428 407 
3 0 2 0 6 3 3 427 426 408 
8 0 6 0 4 8 1 409 
9 0 9 0 3 3 1 410 
4 0 3 0 8 2 1 411 
5 0 8 0 2 3 1 412 
7 0 6 0 6 6 1 413 
9 0 5 0 6 3 1 414 
8 0 5 0 8 6 2 425 415 
10 0 6 0 4 6 1 416 
3 0 4 0 8 2 1 417 
5 0 2 0 3 3 1 418 
5 0 3 0 6 5 1 419 
3 0 3 0 4 3 1 420 
5 0 5 0 5 7 1 421 
1 0 5 0 5 6 1 422 
4 0 4 0 5 8 1 423 
5 0 8 0 3 7 1 424 
2 0 6 0 3 10 1 433 
6 0 2 0 7 2 1 433 
8 0 5 0 4 5 1 433 
1 0 5 0 4 5 1 433 
6 0 4 0 6 5 1 433 
4 0 8 0 3 5 1 433 
1 0 6 0 6 7 1 433 
8 0 10 0 8 5 1 433 
10 0 7 0 4 6 1 433 
0 0 0 0 0 0 1 702 
0 0 0 0 0 0 2 435 455 
2 0 0 1 1 1 1 436 
1 0 0 3 4 5 1 437 
1 0 0 1 8 6 1 438 
10 0 0 4 2 7 1 439 
8 0 0 5 6 3 2 446 440 
4 0 0 4 4 8 1 441 
7 0 0 5 10 4 1 442 
6 0 0 10 8 5 3 451 445 443 
4 0 0 8 6 7 2 448 444 
10 0 0 3 6 4 3 453 450 447 
6 0 0 5 9 6 2 453 449 
5 0 0 6 6 3 1 447 
8 0 0 6 4 4 1 449 
10 0 0 2 6 6 1 449 
5 0 0 6 4 5 1 452 
3 0 0 7 8 5 1 452 
7 0 0 5 3 5 1 453 
9 0 0 4 1 7 1 454 
10 0 0 6 4 5 1 454 
9 0 0 9 9 10 1 456 
6 0 0 5 7 6 1 456 
1 0 0 4 3 4 2 463 457 
1 0 0 6 5 4 1 458 
9 0 0 3 3 5 1 459 
7 0 0 4 2 4 1 460 
2 0 0 6 3 4 1 461 
9 0 0 7 5 6 1 462 
5 0 0 3 4 2 1 464 
6 0 0 8 3 5 1 464 
9 0 0 4 6 4 1 465 
0 0 0 0 0 0 1 702 
0 0 0 0 0 0 6 467 492 493 494 495 496 
8 0 1 1 0 1 1 468 
8 0 8 6 0 4 1 469 
1 0 4 5 0 3 1 470 
4 0 5 3 0 6 3 491 490 471 
5 0 4 4 0 7 1 472 
7 0 9 6 0 2 1 473 
1 0 5 6 0 6 1 474 
6 0 9 3 0 6 1 475 
8 0 5 8 0 3 1 476 
9 0 5 5 0 6 1 477 
5 0 3 7 0 9 1 478 
5 0 6 6 0 5 2 489 479 
3 0 7 4 0 8 1 480 
6 0 6 4 0 3 1 481 
9 0 4 3 0 3 1 482 
2 0 4 6 0 6 1 483 
7 0 6 8 0 5 1 484 
4 0 4 7 0 5 1 485 
10 0 6 3 0 5 1 486 
7 0 10 9 0 5 1 487 
6 0 3 6 0 6 1 488 
3 0 6 7 0 5 1 497 
9 0 2 5 0 4 1 497 
8 0 5 5 0 9 1 497 
1 0 3 5 0 8 1 497 
6 0 2 3 0 4 1 497 
6 0 6 4 0 5 1 497 
1 0 6 4 0 4 1 497 
6 0 3 2 0 3 1 497 
5 0 3 5 0 4 1 497 
0 0 0 0 0 0 1 702 
0 0 0 0 0 0 1 499 
1 0 1 0 0 0 2 508 500 
1 0 7 0 0 0 3 507 506 501 
9 0 5 0 0 0 1 502 
5 0 3 0 0 0 1 503 
5 0 3 0 0 0 1 504 
7 0 8 0 0 0 1 505 
1 0 7 0 0 0 1 509 
2 0 5 0 0 0 1 509 
4 0 7 0 0 0 1 509 
2 0 4 0 0 0 1 509 
0 0 0 0 0 0 5 542 554 576 598 620 
0 0 0 0 0 0 2 511 540 
10 2 0 0 1 1 1 512 
4 3 0 0 5 2 1 513 
8 2 0 0 7 7 1 514 
3 2 0 0 6 7 1 515 
2 8 0 0 5 3 2 539 516 
6 2 0 0 3 3 1 517 
9 8 0 0 5 5 2 538 518 
3 5 0 0 4 8 4 537 536 532 519 
6 7 0 0 3 3 2 527 520 
5 8 0 0 3 5 1 521 
4 4 0 0 6 5 1 522 
5 5 0 0 5 6 1 523 
7 10 0 0 7 7 2 535 524 
6 5 0 0 3 6 1 525 
2 7 0 0 2 3 1 526 
6 2 0 0 5 5 1 528 
5 3 0 0 3 6 1 528 
6 5 0 0 8 8 1 529 
8 7 0 0 6 6 1 530 
4 3 0 0 9 7 1 531 
1 6 0 0 6 7 1 533 
8 7 0 0 3 6 1 533 
5 10 0 0 3 5 1 534 
2 2 0 0 9 2 1 541 
6 4 0 0 5 2 1 541 
1 4 0 0 5 6 1 541 
10 8 0 0 8 4 1 541 
4 6 0 0 4 6 1 541 
7 2 0 0 4 2 1 541 
10 3 0 0 7 7 1 541 
0 0 0 0 0 0 1 702 
0 0 0 0 0 0 3 543 547 550 
9 0 0 1 0 0 1 544 
5 0 0 3 0 0 1 545 
1 0 0 8 0 0 2 552 546 
6 0 0 8 0 0 1 548 
2 0 0 9 0 0 2 552 551 
5 0 0 5 0 0 1 549 
9 0 0 3 0 0 1 551 
2 0 0 6 0 0 1 551 
8 0 0 5 0 0 1 553 
4 0 0 2 0 0 1 553 
0 0 0 0 0 0 5 642 654 666 678 690 
0 0 0 0 0 0 4 555 567 573 574 
6 0 0 0 1 1 2 566 556 
3 0 0 0 5 6 1 557 
2 0 0 0 6 5 1 558 
5 0 0 0 9 3 1 559 
10 0 0 0 7 4 1 560 
8 0 0 0 5 9 1 561 
8 0 0 0 2 4 1 562 
5 0 0 0 1 5 1 563 
5 0 0 0 4 5 2 572 564 
8 0 0 0 7 6 1 565 
10 0 0 0 7 4 1 568 
10 0 0 0 6 7 1 568 
10 0 0 0 3 5 1 568 
9 0 0 0 8 2 1 569 
5 0 0 0 4 9 1 570 
1 0 0 0 4 4 1 571 
9 0 0 0 4 4 1 575 
7 0 0 0 5 6 1 575 
5 0 0 0 4 4 1 575 
1 0 0 0 8 7 1 575 
0 0 0 0 0 0 1 702 
0 0 0 0 0 0 2 577 590 
7 0 0 0 1 1 1 578 
5 0 0 0 6 5 2 584 579 
10 0 0 0 5 5 2 596 580 
3 0 0 0 6 5 1 581 
6 0 0 0 5 8 1 582 
6 0 0 0 2 3 1 583 
9 0 0 0 5 3 2 595 585 
8 0 0 0 5 5 2 595 586 
8 0 0 0 8 3 1 586 
5 0 0 0 4 6 1 587 
9 0 0 0 9 4 2 594 588 
6 0 0 0 3 6 1 589 
7 0 0 0 5 6 1 591 
9 0 0 0 10 6 2 594 593 
5 0 0 0 3 8 1 592 
8 0 0 0 3 4 1 593 
6 0 0 0 4 8 1 597 
2 0 0 0 6 7 1 597 
2 0 0 0 5 3 1 597 
4 0 0 0 5 4 1 597 
0 0 0 0 0 0 1 702 
0 0 0 0 0 0 1 599 
9 1 0 0 0 2 2 604 600 
8 8 0 0 0 5 2 608 601 
2 4 0 0 0 2 2 610 602 
2 2 0 0 0 7 1 603 
9 5 0 0 0 7 2 613 605 
10 5 0 0 0 2 3 613 610 607 
1 6 0 0 0 7 1 606 
9 8 0 0 0 7 1 607 
3 5 0 0 0 3 2 611 609 
6 5 0 0 0 5 2 612 610 
8 6 0 0 0 5 1 612 
8 5 0 0 0 9 1 611 
10 8 0 0 0 4 1 614 
6 3 0 0 0 3 1 614 
3 7 0 0 0 4 1 614 
3 4 0 0 0 3 1 615 
1 3 0 0 0 10 1 616 
6 7 0 0 0 8 1 617 
2 4 0 0 0 4 1 618 
1 4 0 0 0 3 1 619 
0 0 0 0 0 0 1 702 
0 0 0 0 0 0 1 621 
9 0 0 1 1 0 2 624 622 
10 0 0 4 10 0 2 627 623 
5 0 0 4 5 0 1 625 
9 0 0 2 3 0 1 625 
3 0 0 3 5 0 1 626 
3 0 0 3 6 0 2 631 628 
5 0 0 9 6 0 1 628 
4 0 0 3 4 0 2 634 629 
2 0 0 8 4 0 1 630 
5 0 0 7 6 0 1 632 
10 0 0 4 2 0 1 632 
4 0 0 6 4 0 2 637 633 
10 0 0 5 5 0 1 635 
9 0 0 7 8 0 1 635 
10 0 0 5 4 0 1 636 
2 0 0 4 6 0 1 638 
6 0 0 5 2 0 1 638 
8 0 0 10 8 0 1 639 
10 0 0 5 5 0 1 640 
3 0 0 5 6 0 1 641 
0 0 0 0 0 0 1 702 
0 0 0 0 0 0 2 643 644 
5 1 0 0 0 0 2 650 645 
9 8 0 0 0 0 2 650 645 
4 6 0 0 0 0 1 646 
3 5 0 0 0 0 1 647 
2 6 0 0 0 0 2 652 648 
6 4 0 0 0 0 1 649 
2 4 0 0 0 0 1 651 
4 7 0 0 0 0 1 652 
3 4 0 0 0 0 1 653 
5 5 0 0 0 0 1 653 
0 0 0 0 0 0 1 702 
0 0 0 0 0 0 2 655 656 
7 0 0 0 0 1 2 658 657 
1 0 0 0 0 5 1 657 
9 0 0 0 0 5 2 663 659 
5 0 0 0 0 6 2 663 659 
4 0 0 0 0 7 1 660 
6 0 0 0 0 8 1 661 
4 0 0 0 0 2 1 662 
7 0 0 0 0 5 1 664 
6 0 0 0 0 6 1 664 
5 0 0 0 0 5 1 665 
0 0 0 0 0 0 1 702 
0 0 0 0 0 0 2 667 676 
2 0 0 0 0 1 1 668 
1 0 0 0 0 8 2 675 669 
6 0 0 0 0 6 1 670 
4 0 0 0 0 4 2 674 671 
9 0 0 0 0 8 1 672 
3 0 0 0 0 7 1 673 
8 0 0 0 0 3 1 677 
5 0 0 0 0 5 1 677 
1 0 0 0 0 4 1 677 
5 0 0 0 0 4 1 677 
0 0 0 0 0 0 1 702 
0 0 0 0 0 0 2 679 680 
9 1 0 0 0 0 2 683 681 
10 6 0 0 0 0 2 683 682 
10 3 0 0 0 0 1 682 
5 6 0 0 0 0 2 685 684 
10 7 0 0 0 0 1 684 
6 6 0 0 0 0 1 686 
10 5 0 0 0 0 1 686 
8 10 0 0 0 0 1 687 
1 4 0 0 0 0 1 688 
7 2 0 0 0 0 1 689 
0 0 0 0 0 0 1 702 
0 0 0 0 0 0 1 691 
6 0 0 5 0 0 1 692 
10 0 0 3 0 0 2 700 693 
3 0 0 6 0 0 2 697 694 
10 0 0 10 0 0 1 695 
5 0 0 4 0 0 1 696 
7 0 0 1 0 0 1 698 
2 0 0 6 0 0 1 699 
9 0 0 5 0 0 1 701 
9 0 0 5 0 0 1 701 
3 0 0 5 0 0 1 701 
0 0 0 0 0 0 1 702 
0 0 0 0 0 0 0 
